37 






































































































55 43 19 65 72 28 
22 64 36 35 32 5 
49 26 69 46 62 2 53 
40 9 27 39 24 66 61 
10 23 4 20 70 12 56 
48 13 74 60 0 14 50 
31 30 57 29 38 34 
1 21 42 11 68 51 25 
52 76 15 73 7 63 58 
59 8 75 6 71 3 54 
18 41 47 67 44 33 
16 17 45 
